% demand
num_movements = 14;
loading_factor = [1750, 1450, 1400, 1550, 850, 1350, 1700, 1150, 1900, 900, 800, 1500, 1750, 1350];
pickup_time = [0, 0, 0, 0, 0, 2, 2, 2, 2, 2, 3, 3, 3, 3];
delivery_time = [2, 2, 2, 2, 2, 3, 3, 6, 3, 3, 6, 6, 6, 6];

% transporter definition
total_capacity = 7000;
num_decks = 3;
capacity = [3000, 1000, 3000];

% ways out of decks
num_ways_out = 1;
paths_out = array3d(decks, ways_out, decks, [
% ways out of deck d1
2, 3, 0, 

% ways out of deck d2
3, 0, 0, 

% ways out of deck d3
0, 0, 0,	

]);

